letting n_nurses=25
letting n_days=7
letting n_shift_types=4
letting max_covers=14
letting t_covers=87
letting covers=[9,0,10,0,9,10,0,0,2,5,14,0,2,1,0,0,4,1,1,0,9,10,0,0,0,0,0,0]
letting prefes=[1,2,2,1,4,1,4,3,3,4,1,2,1,3,1,1,4,4,1,3,1,1,1,1,1,1,4,1,4,2,2,4,1,1,1,1,1,1,1,4,1,1,2,1,4,1,3,3,4,1,1,3,4,1,4,1,4,2,2,4,1,1,1,3,1,1,2,4,1,3,1,1,4,4,3,3,4,1,1,3,1,1,4,3,1,2,1,4,4,1,1,3,1,1,1,4,4,3,2,1,4,4,1,3,4,3,4,3,4,1,4,1,4,2,2,4,4,1,1,3,1,1,1,4,1,1,1,2,4,4,1,3,4,1,1,3,1,2,4,1,1,1,2,1,4,4,1,3,3,1,2,4,1,3,1,1,4,4,3,3,1,1,1,3,4,1,4,1,1,2,2,4,4,4,4,3,1,1,1,4,1,3,1,1,4,4,1,3,4,3,1,3,4,1,4,1,1,2,2,4,4,4,1,1,1,1,1,2,1,1,1,1,4,1,3,3,4,1,1,3,4,1,1,1,1,1,2,4,4,4,1,3,1,1,1,4,1,3,2,1,4,1,1,3,4,1,1,1,4,1,4,1,4,2,2,4,1,1,1,3,3,1,1,4,4,3,1,1,4,4,3,1,4,1,4,1,4,2,4,1,1,2,2,1,4,1,1,3,1,1,1,4,1,3,1,1,4,4,3,3,4,1,1,3,4,1,4,1,4,2,2,4,4,1,1,3,1,1,1,2,4,3,1,1,4,4,3,3,4,3,4,3,1,1,4,1,1,2,1,4,4,1,1,3,1,4,1,4,4,3,2,1,4,4,3,1,4,1,4,3,4,1,4,1,1,2,2,4,4,1,1,3,3,1,1,4,1,3,1,1,4,4,3,3,4,1,1,3,4,1,4,1,1,2,2,4,4,1,1,3,1,1,2,4,1,3,2,1,3,4,3,1,4,1,1,3,4,2,4,1,1,1,2,4,1,1,1,3,1,1,1,4,1,3,1,1,4,4,3,3,4,1,1,3,4,2,4,1,1,2,1,4,4,1,4,3,1,4,1,4,1,3,1,1,4,4,3,3,4,1,1,3,4,1,1,1,1,2,2,4,4,4,4,3,1,4,1,2,1,3,1,1,4,4,3,3,4,1,1,3,4,1,1,1,1,2,2,4,1,1,1,1,1,1,1,4,1,1,1,2,4,4,3,3,1,1,1,1,4,1,4,3,1,1,1,4,4,1,1,3,1,1,1,4,1,3,1,2,3,4,3,1,4,1,1,1,4,1,4,1,1,2,2,4,4,1,1,1,1,1,1,2,1,3,1,1,3,4,3,3,4,3,1,3,4,1,4,3,1,1,1,4,4,1,1,3,1,4,2,4,4,3,1,1,4,1,3,1,4,1,4,3,4,1,1,3,1,2,2,1,4,1,1,1,3,1,2,4,1,1,1,2,4,4,3,3,1,1,1,3,1,2,4,1,1,2,2,4,4,1,1,3,1,1,1,4,1,3,1,2,3,4,3,3,4,1,1,3,4,1,4,1,1,2,2,1,4,1,4,3,1,1,1,4,1,3,1,1,3,1,3,3,1,3,1,3,4,1,1,3]
letting ub =  233
